p cnf 150 45
x 4 -7 8 -10 -12 -14 -16 -18 19 21 -26 27 30 -32 -35 37 -38 -43 -44 46 47 -48 -50 52 53 54 55 -56 57 58 59 61 65 70 71 72 73 75 -76 -78 -79 81 -83 -86 -91 -96 -97 -98 99 -101 -103 104 106 107 -109 110 -111 -112 -114 116 -117 -119 -122 123 124 -127 -128 131 -136 137 -138 140 -143 -146 150 0
x 1 9 -10 12 13 -16 20 -22 -23 26 -27 28 30 31 -32 34 36 -38 -40 -41 -42 -46 47 48 -52 54 55 -56 57 58 -59 62 -66 -67 -70 -72 74 78 79 -81 82 -84 -87 -88 -89 -91 92 -95 97 -101 -102 103 104 105 108 -109 114 -116 117 118 120 121 -122 -127 -131 132 133 134 -136 138 -139 -141 -143 146 0
x 5 6 -8 -9 -10 11 -14 16 -17 19 -24 -25 -26 29 -30 31 -33 -34 -35 37 39 -40 -41 43 44 -52 -53 54 -57 -58 -62 66 67 -69 70 71 -74 -76 77 78 79 -86 87 89 92 96 -97 98 103 106 -107 -109 -110 112 114 -115 116 -120 121 122 127 128 129 -132 -135 -136 138 -139 140 141 144 0
x -3 6 7 12 13 15 -16 -17 -19 20 22 23 24 -26 -29 32 36 41 43 -50 52 -53 -55 57 -59 -61 62 -64 65 69 71 72 -75 76 79 83 -85 -87 -88 -89 91 -95 97 -98 99 -100 -105 -109 111 -112 -113 117 119 120 123 125 -126 127 131 -137 -140 142 -144 146 -147 -148 -149 0
x 4 -5 9 -10 14 -15 16 19 20 -23 24 -25 -31 -32 40 41 -42 43 44 -48 50 -51 55 -57 -58 59 60 61 63 -65 -66 70 -73 -74 75 -76 81 82 84 -88 -89 -90 -93 96 -97 98 101 -102 103 -105 106 109 -110 -111 -112 -113 -114 -115 -116 -117 118 -119 -122 -123 124 -125 127 -128 130 -131 132 133 136 -137 -140 142 -144 -146 148 149 150 0
x -2 -3 5 6 -8 -9 -10 -12 -13 -14 15 -17 -18 19 -22 23 -24 -25 26 27 29 -31 35 37 38 -39 45 48 49 51 -52 -55 58 -60 -61 62 64 65 66 -67 -68 69 70 73 76 77 -78 -80 -84 85 86 87 88 -89 -91 -93 94 -97 -103 -107 108 109 -110 -111 115 116 -117 120 -123 -124 126 127 -131 -133 -140 -141 -142 145 -146 148 -149 0
x -2 4 6 -7 10 12 -13 15 -16 18 -19 20 -21 23 25 26 28 -29 31 -35 -38 -39 43 44 -46 48 -52 53 54 -61 62 -64 -68 71 72 73 -75 77 -80 -82 -83 -84 -87 -91 94 95 96 97 99 101 104 -105 -106 107 108 109 111 -112 -116 118 -119 120 125 128 -129 131 -132 133 -134 137 138 -140 -141 -142 144 145 -146 -148 150 0
x -1 4 7 -9 11 14 -16 -17 -18 -24 -26 27 30 32 -34 -35 -38 39 41 -43 44 -45 -46 47 -51 52 -53 56 58 -59 60 62 63 64 65 -66 67 68 -70 73 -76 77 -78 80 85 -93 95 96 97 99 101 102 -103 -105 -107 -108 -112 113 114 115 -116 117 119 121 122 124 -126 -127 -129 -130 -137 139 -140 141 -142 144 -145 146 -147 -148 -149 -150 0
x -1 -2 5 -7 9 -11 -12 14 -15 -16 -17 21 -22 -23 24 27 -28 32 -34 -35 -38 40 -42 -43 44 45 -47 49 -52 -53 54 -55 -56 57 -60 61 -64 -67 -70 73 76 -77 80 -82 -83 84 -86 -88 -90 92 93 -94 95 -96 -97 100 -112 113 114 -116 117 118 -119 120 -122 -126 -127 -128 130 131 132 135 -136 138 144 145 146 -150 0
x -1 -3 -5 -9 10 12 -13 14 15 -19 21 22 -23 -24 -25 -27 29 30 -35 36 38 -39 -41 42 -44 46 47 -50 53 -56 57 63 -64 -65 68 69 71 72 74 78 -79 -85 -87 -91 -96 -99 -102 103 104 -105 106 107 -108 -110 -111 -112 113 118 -119 121 -125 128 -131 -132 -134 -135 -138 -140 141 143 144 145 -146 -150 0
x -1 2 -3 -4 5 -6 -11 12 14 16 -17 18 -19 -20 -21 22 -25 -26 28 29 32 -34 -35 36 -37 38 40 41 42 44 46 47 48 -49 -50 51 -52 -53 54 55 59 60 62 63 65 67 -69 -70 -73 74 75 -76 -77 -79 -80 -81 -82 -85 -88 89 -94 96 98 -100 101 -102 -104 -105 -107 -109 111 112 113 114 -117 -120 121 -124 125 126 -127 -131 -134 -135 136 137 138 139 141 -142 -143 144 -147 -148 0
x 1 4 -5 -7 8 12 17 -20 21 23 -25 -36 -38 -40 41 -42 43 44 -46 47 51 -52 -56 -57 -59 -60 63 -67 -68 69 74 -85 87 -88 90 94 95 -102 103 -104 -107 108 109 -110 -111 112 114 118 -119 120 -122 126 127 -130 131 132 -133 -134 135 136 -141 142 144 -146 147 -148 -149 150 0
x -5 8 9 -11 12 15 16 -17 18 -19 20 -22 24 28 33 34 36 38 39 40 -41 42 46 49 -53 59 -61 62 64 -65 -67 -68 -70 -73 75 77 78 79 -80 -84 90 -91 -96 -98 104 -106 107 -110 -115 -116 -119 121 -125 -129 130 -131 132 -135 136 139 140 -141 142 -150 0
x -2 -3 -5 6 7 -9 10 12 -16 -17 23 -26 30 -31 -32 -33 -36 37 -39 -40 -41 47 -49 50 -51 -53 54 -56 -58 60 61 -62 63 65 69 78 -81 -85 -87 -90 91 94 -98 -99 102 -104 -107 109 114 115 116 117 118 119 -120 122 124 125 126 127 -129 130 -131 -133 135 -139 -140 -142 -144 145 -146 148 -149 -150 0
x -2 4 5 -7 -11 -12 -13 14 16 -17 -19 20 -21 -23 -25 -26 -27 -28 29 -30 -32 33 34 36 -37 -40 41 43 -44 -45 -46 -47 48 49 -52 -54 58 -59 60 61 64 -65 -67 68 -75 76 -77 79 80 84 85 -86 87 92 94 -97 98 102 105 -106 109 -110 -111 -113 116 -119 -120 121 -122 123 125 -129 130 131 -132 135 -136 -137 139 -142 -147 148 149 150 0
x -1 2 -5 8 9 15 18 19 20 -27 -28 29 -33 -34 35 -40 -41 43 44 45 -47 48 49 -52 54 56 -59 -60 61 -62 -64 67 68 71 -72 74 -75 78 82 -84 85 86 -89 -90 -92 -93 94 -96 99 100 101 -102 104 -106 -107 109 -110 113 114 116 -117 -119 120 124 -126 -127 -131 -132 133 134 -137 -139 140 141 -144 146 -147 148 0
x -1 2 5 8 9 -10 -11 12 13 14 16 -17 -20 -23 -24 -25 27 -28 -34 35 -36 -37 39 -40 41 42 43 45 48 50 51 -52 53 -54 -59 60 61 62 64 -65 68 69 -70 73 80 85 89 -91 -93 -95 96 98 100 101 103 104 -105 108 -112 114 118 119 123 -126 127 128 129 -130 -131 -132 133 -134 139 -140 141 143 -145 -146 -147 0
x -2 7 -9 11 12 13 -15 -16 -20 -21 27 31 32 33 36 -37 38 -39 40 41 42 -44 -45 46 -48 49 -51 53 -55 -56 57 58 -59 60 62 -64 65 66 67 -70 72 75 78 80 81 88 -89 90 -91 -92 -95 97 98 -99 100 101 -103 106 -107 -115 -116 117 118 119 122 -124 -125 -127 -128 130 -134 -135 136 -138 -140 142 143 -144 145 147 -148 -150 0
x 6 -7 -8 11 -13 14 15 -18 -21 -22 -24 25 26 -27 -28 -29 -30 32 -33 34 35 36 37 -40 -41 -42 44 -46 47 48 50 -54 -58 60 64 -66 -67 68 69 71 74 75 77 -78 -81 83 -84 90 91 -92 -93 -95 -99 100 101 102 -105 109 110 111 -112 -113 114 -115 -116 -117 -120 -122 125 128 -130 -131 135 136 139 -142 145 0
x -3 -4 -5 -7 -9 -11 -12 13 -14 -15 -16 18 -19 -24 -25 28 31 -33 34 -35 -38 -41 44 45 -47 49 -50 -51 -52 59 60 61 63 64 -65 66 -68 -70 -71 74 -75 -77 78 79 80 81 82 83 -85 88 -91 -92 93 95 -96 98 -100 -102 104 105 106 -110 -112 -114 116 -120 121 126 -127 -128 -129 -131 132 -134 137 138 142 145 0
x -2 3 5 -7 8 -10 -13 14 19 -21 -27 30 -31 32 -33 34 -35 -37 39 -41 -43 -44 -45 50 51 52 -53 54 56 63 -64 65 66 72 -73 -76 80 81 87 88 89 -95 -96 98 104 106 109 112 113 -118 120 -122 124 -125 -127 129 130 -132 -134 -136 139 141 142 -145 -146 149 0
x -1 -2 4 7 -8 -10 -12 16 -17 -19 -21 -23 -25 29 -31 32 -35 -40 44 45 -47 -49 50 52 -53 56 57 -58 63 -66 67 69 71 -72 -73 -78 79 -83 -84 -85 86 -87 -88 -89 90 92 -95 -98 99 -100 101 102 -103 111 -112 -113 -117 -118 119 -120 -122 -123 -124 -127 -128 129 -130 -133 134 -135 -136 -137 140 142 -145 147 -148 -149 0
x 4 6 10 -11 12 13 15 -16 17 -23 -25 -26 -28 29 -30 38 41 -42 43 -46 -49 -52 53 54 56 58 60 -74 -76 -77 82 83 90 92 93 94 95 100 104 107 -109 112 115 -117 119 121 122 123 -125 127 128 130 131 -132 -133 134 135 -139 -140 142 -144 -145 146 148 149 150 0
x 1 2 -3 -4 5 -6 -9 10 11 14 -18 19 -21 23 24 -25 -26 29 31 -32 -33 34 35 37 38 40 41 -43 -45 -46 -48 49 -50 53 -55 -60 61 63 64 -65 66 -67 70 72 74 76 78 -81 83 -85 86 -87 89 -90 -91 -94 -96 98 -101 102 104 107 109 114 -117 118 119 -120 -121 124 129 -130 131 132 -133 134 137 139 140 144 145 -146 -149 150 0
x -4 -10 -11 -14 -16 18 -20 -21 23 24 -25 27 -30 31 34 -35 37 -39 43 44 -48 49 51 52 53 54 -57 -58 59 62 63 -65 -70 -71 76 77 78 79 -80 -81 82 84 -85 -87 91 93 -94 95 96 -98 -104 -108 109 112 115 -118 119 -120 -121 -129 -130 131 -132 -133 134 -136 -137 -138 -141 142 -145 -146 0
x -1 -3 5 -6 7 8 -9 11 -14 15 16 -18 -19 23 26 30 -31 32 33 -35 -38 39 -40 41 42 -47 -48 -50 -51 -52 53 -55 60 -66 -71 -72 -75 -76 79 -81 83 84 -85 86 88 89 92 -96 98 -100 102 103 104 -105 -109 110 111 -112 113 114 118 -119 -120 121 -123 126 -127 -128 131 -132 -137 -142 -143 -145 149 150 0
x 2 3 4 -5 -6 -11 15 -16 17 -21 22 31 32 -35 36 -37 -39 42 -43 45 -49 -51 52 53 54 -57 -59 60 61 62 -64 -66 -71 75 77 79 -80 81 -82 -83 -84 -86 87 -93 -94 95 96 97 -100 102 -104 -106 107 -108 109 -110 111 113 -115 -118 -120 121 -123 -126 -129 -130 131 135 -138 139 141 142 -144 0
x -2 7 11 12 13 -14 17 -18 -20 -25 -26 27 -29 -31 36 37 -41 42 43 45 -46 47 -48 49 -50 -52 53 54 56 57 -59 60 -62 63 -64 65 -67 -72 73 74 75 -76 79 80 -84 85 86 -88 89 -93 94 95 97 -98 -103 105 107 109 112 115 -117 120 -122 123 125 -126 127 128 130 -131 132 133 -135 -136 137 138 -142 143 149 150 0
x -2 -6 -8 9 13 20 21 22 23 24 -25 27 28 -29 34 -36 38 -39 -41 -42 43 51 -55 57 -60 62 -63 -65 66 -68 -69 -70 71 -72 74 -76 77 82 88 -89 -90 -91 98 99 103 -104 107 -108 -111 -115 116 117 -118 -120 -121 126 -127 -128 129 131 -133 -135 136 -139 -141 -142 -143 144 145 -146 -147 150 0
x 3 -13 -16 -17 19 20 21 -22 -23 24 -26 -27 -29 30 -31 33 36 -37 -38 -39 42 -45 -46 48 49 -50 -51 52 55 56 58 59 60 61 -64 65 69 -70 -71 72 -74 -75 77 79 -80 82 83 84 -85 86 -88 -92 94 95 -97 -98 99 101 104 105 110 111 112 113 114 119 -120 121 -123 -126 127 -129 -131 133 -136 -137 140 -141 142 -143 145 -146 0
x 1 -2 -4 6 -9 -14 -15 16 17 -19 -21 -22 -23 25 26 29 -31 -32 -35 -36 -37 -39 -40 42 47 48 -49 -50 -52 -53 54 -57 58 -62 -65 67 -68 69 -71 -72 -77 79 80 82 -83 85 -88 96 99 -100 102 -104 106 -109 -111 113 -114 115 116 -119 -121 122 126 128 -130 133 -134 -135 -142 -144 -145 -146 147 148 -149 -150 0
x 1 -2 -3 -4 5 6 -8 -12 -13 -14 -15 16 -19 22 -23 -24 25 -29 31 33 -34 -36 -38 -39 40 -41 42 43 44 -46 47 49 -52 -53 -57 -58 59 63 -64 -65 70 72 -75 -76 -77 -80 -81 83 -85 -88 94 97 -98 100 101 104 -107 108 109 110 -111 112 113 -114 -116 -120 122 -123 -124 -126 -131 -132 -133 -134 137 -142 143 146 148 0
x 4 -5 -7 10 12 13 -15 -17 18 20 -21 23 -24 26 30 33 35 37 41 42 45 -51 -52 -54 -56 57 -59 -60 61 -64 67 -68 -69 74 -75 -76 79 -80 -81 86 88 -89 90 95 98 99 100 103 -105 -108 113 -115 -116 117 -119 120 -122 123 124 -125 126 131 133 -134 -135 137 -140 -144 -145 146 -149 0
x 1 6 -10 11 -12 -14 15 -16 19 -23 29 -30 33 35 -38 41 -45 -46 -48 -52 -53 55 56 -57 -58 -59 61 -62 -65 66 69 -73 -74 -76 -80 81 -83 85 88 -89 -90 -91 -93 -94 -101 -103 -106 -107 108 109 -114 -115 118 -120 -123 -124 127 128 -129 -130 132 -133 136 -137 138 140 143 144 -145 147 148 0
x -3 -7 8 -13 14 15 -16 17 18 19 20 21 -22 24 -26 -30 -31 32 -35 37 -41 42 -44 -48 49 52 -53 54 -55 -56 -58 -59 -60 -66 67 69 -70 73 74 75 76 78 -79 81 -82 83 -85 -87 88 -89 90 -93 96 105 -108 109 113 -117 -120 123 126 128 -130 -131 -132 -133 -138 -139 -141 -142 143 -145 -146 147 0
x -1 -2 5 6 -9 13 -14 -15 21 25 26 27 -29 30 -32 40 41 47 -48 -49 55 57 58 61 -62 -63 65 66 -67 -71 75 -81 82 83 -84 -85 -86 -87 -90 -91 -93 94 -95 97 -99 -100 -101 103 -105 -106 107 -108 109 -112 -114 -116 -119 120 -121 125 -127 -128 -129 -130 132 -134 -138 -140 -145 148 149 0
x -2 -9 10 -12 -13 -17 19 -20 26 -27 32 33 -35 -37 -38 -40 43 44 45 49 -51 52 -54 60 61 63 -65 -66 -68 71 74 75 -76 -77 81 82 -83 -84 -86 87 88 90 -92 -93 -94 95 -96 97 -99 -100 101 103 -105 -106 107 108 -109 -111 -113 114 -115 -119 121 -123 -124 127 -128 -130 131 135 -136 137 -139 -141 144 146 -148 0
x -2 3 5 -7 8 9 14 -15 -18 -19 -20 -22 -23 24 -26 30 -31 -32 33 -34 -36 38 39 41 44 -47 -52 -53 -54 -57 60 65 66 -67 -68 70 71 73 -75 -76 -78 86 89 92 -94 -96 -97 98 100 104 105 106 -108 -110 111 -112 -114 117 -118 119 120 -123 -126 -134 137 138 -140 142 -145 -146 -148 149 150 0
x 2 5 6 -10 11 -13 -14 15 19 21 -25 26 -29 -30 31 32 -33 35 -38 39 40 41 45 -50 -52 -53 54 56 -58 -59 62 -63 -64 66 -67 69 -70 -71 -73 -74 76 -79 -81 -82 87 88 -89 -91 93 -95 -99 -102 -103 -104 107 -110 -111 -117 -119 -121 -126 -127 130 -135 137 -140 141 -145 148 0
x -1 5 -6 -7 -8 -10 -11 13 -15 -18 19 -20 -23 31 -33 34 -35 36 37 39 -40 -41 43 -44 46 -48 -50 -51 52 -53 -54 56 -57 58 -59 60 61 64 -70 74 -75 78 -79 -84 -86 87 93 94 -96 -98 -99 -101 -102 106 -107 -108 110 -112 -113 114 -117 118 122 -126 -127 -129 131 -133 139 145 148 -150 0
x -3 5 -9 10 -11 -13 -14 -16 17 -23 26 27 -28 -31 33 -36 37 -40 -41 42 -44 -47 -51 -53 56 -57 -58 59 -60 -64 65 -70 -74 -76 78 83 -84 -85 -86 87 90 91 -92 95 97 -98 99 -100 -101 105 106 108 109 -110 -111 112 -113 -114 115 117 121 124 -125 -126 -128 130 -137 -139 -142 -143 -145 -147 150 0
x 9 -12 -13 -14 15 16 -17 18 -23 -25 -26 27 -28 -31 -33 -36 -38 43 -47 48 -49 -52 55 -58 -59 67 70 -72 75 -77 -78 79 -82 -92 -95 -96 -97 98 -99 102 -103 104 -105 -107 -108 -109 110 -112 114 118 120 121 -124 127 129 130 131 134 -137 141 142 -143 146 147 -148 -149 -150 0
x 4 8 -9 -11 14 15 -17 -18 -19 -21 22 -23 -26 -28 29 -30 -31 32 33 36 -39 -42 -43 -44 -45 47 50 53 55 -57 -59 -63 68 73 -75 76 -77 -78 -79 81 -82 -84 -85 -88 -89 -91 -95 -97 99 100 -106 107 -109 -110 -114 -115 116 117 -121 -123 -124 -127 133 134 -136 -137 139 -146 -148 -149 -150 0
x -1 3 -4 -5 7 8 10 11 14 15 -16 20 25 -26 -29 -31 -34 38 -40 41 42 -47 52 -53 -55 -56 -57 -59 60 -61 -63 72 73 -78 79 80 81 -89 90 91 -93 -95 -98 99 -100 103 106 108 -109 -110 -111 -114 -115 118 -119 121 -122 128 129 131 133 134 135 -137 -138 139 142 143 144 -145 146 -148 -149 -150 0
x 6 9 -11 -12 -13 -14 -15 16 17 19 -22 23 24 -25 29 33 34 35 -36 38 40 44 -46 -49 -51 52 -56 58 59 -60 61 67 -68 -69 -70 72 -73 -74 -80 82 83 -85 -86 88 90 92 -93 -95 97 100 -101 -102 -104 105 -109 -110 111 114 115 118 119 121 -124 -126 -131 132 134 135 136 -137 -139 -140 141 -142 -145 -146 -149 -150 0
g -60